NAME : rand50
COMMENT : 50-random-city problem 
TYPE : TSP
DIMENSION : 50
EDGE_WEIGHT_TYPE : EUC_2D
NODE_COORD_SECTION
1 475 110
2 29 929
3 755 897
4 698 979
5 871 317
6 535 184
7 548 73
8 594 380
9 233 845
10 881 654
11 200 540
12 9 800
13 526 456
14 765 30
15 992 449
16 659 193
17 938 370
18 233 966
19 692 112
20 680 873
21 589 968
22 553 444
23 106 941
24 959 366
25 273 614
26 568 383
27 661 431
28 824 144
29 191 587
30 464 457
31 959 722
32 823 486
33 259 513
34 977 467
35 794 895
36 243 863
37 802 294
38 811 650
39 954 534
40 300 486
41 665 865
42 648 205
43 645 848
44 29 496
45 98 25
46 344 676
47 735 371
48 924 450
49 313 472
50 407 339
EOF
